unsat
(forall ((A (_ BitVec 19))
         (B (_ BitVec 21))
         (C (_ BitVec 21))
         (D (_ BitVec 12))
         (E (_ BitVec 12))
         (F (_ BitVec 21))
         (G (_ BitVec 12))
         (H (_ BitVec 19))
         (I (_ BitVec 3))
         (J (_ BitVec 19))
         (K (_ BitVec 19))
         (L (_ BitVec 35))
         (M (_ BitVec 35))
         (N (_ BitVec 19))
         (O (_ BitVec 19))
         (P (_ BitVec 19))
         (Q (_ BitVec 16))
         (R (_ BitVec 28))
         (S (_ BitVec 19))
         (T (_ BitVec 12))
         (U (_ BitVec 15))
         (V (_ BitVec 15))
         (W (_ BitVec 1))
         (X (_ BitVec 19))
         (Y (_ BitVec 36))
         (Z (_ BitVec 19))
         (A1 (_ BitVec 35))
         (B1 (_ BitVec 1))
         (C1 (_ BitVec 1))
         (D1 (_ BitVec 19))
         (E1 (_ BitVec 57))
         (F1 (_ BitVec 1))
         (G1 (_ BitVec 21))
         (H1 (_ BitVec 48))
         (I1 (_ BitVec 1))
         (J1 (_ BitVec 1))
         (K1 (_ BitVec 1))
         (L1 (_ BitVec 19))
         (M1 (_ BitVec 35))
         (N1 (_ BitVec 1))
         (O1 (_ BitVec 1))
         (P1 (_ BitVec 21))
         (Q1 (_ BitVec 19))
         (R1 (_ BitVec 1))
         (S1 (_ BitVec 1))
         (T1 (_ BitVec 1))
         (U1 (_ BitVec 8))
         (V1 (_ BitVec 1))
         (W1 (_ BitVec 36))
         (X1 (_ BitVec 28))
         (Y1 (_ BitVec 35))
         (Z1 (_ BitVec 19))
         (A2 (_ BitVec 19))
         (B2 (_ BitVec 21))
         (C2 (_ BitVec 19))
         (D2 (_ BitVec 1))
         (E2 (_ BitVec 19))
         (F2 (_ BitVec 1))
         (G2 (_ BitVec 19))
         (H2 (_ BitVec 19))
         (I2 (_ BitVec 19))
         (J2 (_ BitVec 28))
         (K2 (_ BitVec 1))
         (L2 (_ BitVec 36))
         (M2 (_ BitVec 28))
         (N2 (_ BitVec 1)))
  (! (let ((a!1 (or (not (= ((_ extract 0 0) A) #b1))
                    (= ((_ extract 0 0) Z) #b1)))
           (a!2 (= ((_ extract 24 2)
                     (bvadd ((_ extract 34 10) L) (concat #x0 B)))
                   #b00000000000000000000000))
           (a!3 (or (not (= C1 #b1))
                    (not (= ((_ extract 0 0) Q1) #b1))
                    (= I1 #b0)))
           (a!4 (or ((_ bit2bool 17) H1)
                    (not ((_ bit2bool 0) I))
                    (not ((_ bit2bool 33) H1))
                    (= ((_ extract 2 2) I) #b1)
                    (= ((_ extract 1 1) I) #b1)
                    (not (= ((_ extract 16 16) H1) #b1))
                    (not (= ((_ extract 2 0) H1) #b110))))
           (a!5 (or (not (= ((_ extract 2 1) I) #b00))
                    ((_ bit2bool 16) H1)
                    ((_ bit2bool 17) H1)
                    ((_ bit2bool 33) H1)
                    (not ((_ bit2bool 0) I))
                    (not ((_ bit2bool 1) H1))))
           (a!6 (or (not (= ((_ extract 2 1) I) #b00))
                    ((_ bit2bool 2) H1)
                    ((_ bit2bool 16) H1)
                    ((_ bit2bool 17) H1)
                    ((_ bit2bool 34) H1)
                    (not ((_ bit2bool 0) I))
                    (not ((_ bit2bool 18) H1))))
           (a!7 (or (not (= ((_ extract 2 1) I) #b00))
                    ((_ bit2bool 19) H1)
                    ((_ bit2bool 20) H1)
                    (not ((_ bit2bool 0) I))
                    (not ((_ bit2bool 4) H1))
                    (not (= ((_ extract 46 35) H1) #x000))))
           (a!8 (= ((_ extract 28 6)
                     (bvadd (concat #x00 B2) ((_ extract 34 6) Y1)))
                   #b00000000000000000000000))
           (a!9 (or (not (= ((_ extract 2 1) I) #b00))
                    ((_ bit2bool 18) H1)
                    ((_ bit2bool 34) H1)
                    (not ((_ bit2bool 0) I))
                    (not ((_ bit2bool 35) H1))
                    (not ((_ bit2bool 19) H1))
                    (not ((_ bit2bool 3) H1))))
           (a!10 (= ((_ extract 26 4)
                      (bvadd ((_ extract 34 8) M1) (concat #b000000 C)))
                    #b00000000000000000000000))
           (a!11 (or (not (= ((_ extract 2 1) I) #b00))
                     ((_ bit2bool 32) H1)
                     ((_ bit2bool 0) H1)
                     (not ((_ bit2bool 0) I))
                     (not ((_ bit2bool 16) H1))))
           (a!12 (or (not (= ((_ extract 2 1) I) #b00))
                     ((_ bit2bool 1) V)
                     ((_ bit2bool 1) U)
                     ((_ bit2bool 0) V)
                     (not ((_ bit2bool 0) I))
                     (not ((_ bit2bool 1) H1))))
           (a!13 (or (not (= ((_ extract 2 1) I) #b00))
                     ((_ bit2bool 33) H1)
                     (not ((_ bit2bool 0) I))
                     (not ((_ bit2bool 32) H1))
                     (not ((_ bit2bool 17) H1))
                     (not ((_ bit2bool 16) H1))
                     (not ((_ bit2bool 1) H1))))
           (a!14 (or (not (= ((_ extract 2 1) I) #b00))
                     ((_ bit2bool 2) H1)
                     ((_ bit2bool 34) H1)
                     (not ((_ bit2bool 0) I))
                     (not ((_ bit2bool 32) H1))
                     (not (= ((_ extract 31 16) H1) #xfffb))))
           (a!15 (or (not (= ((_ extract 2 1) I) #b00))
                     ((_ bit2bool 2) H1)
                     (not ((_ bit2bool 0) I))
                     (not ((_ bit2bool 32) H1))
                     (not ((_ bit2bool 3) H1))
                     (= ((_ extract 35 35) H1) #b1)
                     (not (= ((_ extract 31 16) H1) #xfffb))))
           (a!16 ((_ extract 21 10)
                   (bvadd (concat #b000 ((_ extract 20 2) P1)) (concat #b0 G1))))
           (a!17 (or ((_ bit2bool 55) E1)
                     ((_ bit2bool 36) E1)
                     (not ((_ bit2bool 18) E1))
                     (not (= ((_ extract 0 0) O) #b1))))
           (a!18 (or (not (= ((_ extract 2 1) I) #b00))
                     (not ((_ bit2bool 0) I))
                     (not ((_ bit2bool 19) H1))
                     (not ((_ bit2bool 18) H1))
                     (not ((_ bit2bool 3) H1))
                     (= ((_ extract 35 35) H1) #b1)
                     (not (= ((_ extract 34 34) H1) #b1))))
           (a!19 (or (not (= ((_ extract 2 1) I) #b00))
                     ((_ bit2bool 16) H1)
                     (not ((_ bit2bool 0) I))
                     (not ((_ bit2bool 17) H1))
                     (not ((_ bit2bool 1) H1))
                     (not (= ((_ extract 33 33) H1) #b1))))
           (a!20 (or (not (= ((_ extract 2 1) I) #b00))
                     ((_ bit2bool 0) H1)
                     ((_ bit2bool 16) H1)
                     (not ((_ bit2bool 0) I))
                     (not ((_ bit2bool 32) H1))))
           (a!21 (= ((_ extract 18 3)
                      (bvmul #b1111111111111111111 ((_ extract 18 0) E1)))
                    #x0000))
           (a!22 (= (concat ((_ extract 14 14) U) U)
                    (bvmul #xffff (concat ((_ extract 14 14) V) V))))
           (a!24 (or (not (= ((_ extract 2 1) I) #b00))
                     ((_ bit2bool 2) H1)
                     (not ((_ bit2bool 0) I))
                     (not ((_ bit2bool 18) H1))
                     (not (= ((_ extract 34 32) H1) #b000))))
           (a!25 (or (= I #b011)
                     ((_ bit2bool 2) V)
                     (not ((_ bit2bool 0) I))
                     (= ((_ extract 2 2) I) #b1)
                     (not (= ((_ extract 18 18) H1) #b1))))
           (a!26 (or (not (= ((_ extract 2 1) I) #b00))
                     ((_ bit2bool 2) H1)
                     ((_ bit2bool 16) H1)
                     ((_ bit2bool 18) H1)
                     ((_ bit2bool 33) H1)
                     (not ((_ bit2bool 0) I))
                     (not ((_ bit2bool 34) H1))))
           (a!27 (or (= I #b011)
                     ((_ bit2bool 0) V)
                     (not ((_ bit2bool 0) I))
                     (= ((_ extract 2 2) I) #b1)
                     (not (= ((_ extract 16 16) H1) #b1))))
           (a!28 (or (not (= ((_ extract 0 0) O) #b1))
                     (= ((_ extract 0 0) L1) #b1)))
           (a!29 (or (not (= ((_ extract 2 1) I) #b00))
                     (not ((_ bit2bool 0) I))
                     (not ((_ bit2bool 2) H1))
                     (not (= ((_ extract 34 32) H1) #b001))
                     (not (= ((_ extract 18 16) H1) #b001))))
           (a!30 (or (not (= ((_ extract 2 1) I) #b00))
                     ((_ bit2bool 3) H1)
                     ((_ bit2bool 17) H1)
                     ((_ bit2bool 19) H1)
                     ((_ bit2bool 33) H1)
                     (not ((_ bit2bool 0) I))
                     (not ((_ bit2bool 35) H1))
                     (= ((_ extract 18 18) H1) #b1)))
           (a!31 (= ((_ extract 30 8)
                      (bvadd (concat #b0000000000 F) ((_ extract 34 4) M)))
                    #b00000000000000000000000))
           (a!32 (or (= I #b011)
                     (not ((_ bit2bool 0) I))
                     (= ((_ extract 2 2) I) #b1)
                     (not (= ((_ extract 34 34) H1) #b1))
                     (not (= ((_ extract 47 16) H1) ((_ extract 31 0) H1)))))
           (a!33 (or (not (= ((_ extract 2 1) I) #b00))
                     ((_ bit2bool 17) H1)
                     ((_ bit2bool 33) H1)
                     (not ((_ bit2bool 0) I))
                     (not ((_ bit2bool 34) H1))
                     (not ((_ bit2bool 18) H1))
                     (not ((_ bit2bool 2) H1))))
           (a!34 (or (not (= ((_ extract 2 1) I) #b00))
                     ((_ bit2bool 1) H1)
                     (not ((_ bit2bool 0) I))
                     (not ((_ bit2bool 33) H1))
                     (not (= ((_ extract 18 16) H1) #b100))))
           (a!35 (or (not (= ((_ extract 2 1) I) #b00))
                     ((_ bit2bool 3) H1)
                     (not ((_ bit2bool 0) I))
                     (= ((_ extract 35 35) H1) #b1)
                     (= ((_ extract 34 34) H1) #b1)
                     (not (= ((_ extract 31 16) H1) #xfffc))))
           (a!36 (or (= I #b011)
                     ((_ bit2bool 1) H1)
                     ((_ bit2bool 16) H1)
                     (not ((_ bit2bool 0) I))
                     (= ((_ extract 2 2) I) #b1)
                     (not (= ((_ extract 33 33) H1) #b1))
                     (= ((_ extract 1 1) V) #b1)))
           (a!37 (or (not (= ((_ extract 2 1) I) #b00))
                     ((_ bit2bool 1) H1)
                     (not ((_ bit2bool 0) I))
                     (= ((_ extract 33 33) H1) #b1)
                     (not (= ((_ extract 31 16) H1) #xfffa))))
           (a!38 (or (not (= ((_ extract 2 1) I) #b00))
                     ((_ bit2bool 1) H1)
                     (not ((_ bit2bool 0) I))
                     (not ((_ bit2bool 17) H1))
                     (not (= ((_ extract 34 32) H1) #b000))))
           (a!39 (or (= I #b011)
                     ((_ bit2bool 0) H1)
                     (not ((_ bit2bool 0) I))
                     (not ((_ bit2bool 33) H1))
                     (= ((_ extract 2 2) I) #b1)
                     (not (= ((_ extract 31 16) H1) #xfff9))
                     (not (= ((_ extract 1 1) H1) #b1))))
           (a!40 (or ((_ bit2bool 0) U)
                     ((_ bit2bool 0) H1)
                     (not ((_ bit2bool 0) I))
                     (= ((_ extract 2 2) I) #b1)
                     (= ((_ extract 1 1) I) #b1)
                     (not (= ((_ extract 16 16) H1) #b1))))
           (a!41 (= (bvmul #xffff (concat ((_ extract 14 14) V) V))
                    (concat ((_ extract 14 14) U) U))))
     (let ((a!23 (or (not (= ((_ extract 2 1) I) #b00))
                     ((_ bit2bool 16) H1)
                     (not ((_ bit2bool 0) I))
                     (not ((_ bit2bool 17) H1))
                     (= ((_ extract 33 33) H1) #b1)
                     (not a!22)))
           (a!42 (or (= I #b011)
                     ((_ bit2bool 33) H1)
                     (not ((_ bit2bool 0) I))
                     (= ((_ extract 2 2) I) #b1)
                     (not (= ((_ extract 31 16) H1) #xfff9))
                     (not a!41))))
     (let ((a!43 (and a!1
                      (not ((_ bit2bool 1) D))
                      (not ((_ bit2bool 0) D))
                      (not ((_ bit2bool 1) T))
                      (= ((_ extract 34 12) A1) #b00000000000000000000000)
                      (not ((_ bit2bool 3) Z))
                      (not ((_ bit2bool 4) Z))
                      (not ((_ bit2bool 5) Z))
                      (not ((_ bit2bool 6) Z))
                      (not ((_ bit2bool 7) Z))
                      (not ((_ bit2bool 8) Z))
                      (not ((_ bit2bool 9) Z))
                      (not ((_ bit2bool 10) Z))
                      (not ((_ bit2bool 11) Z))
                      (not ((_ bit2bool 12) Z))
                      (not ((_ bit2bool 13) Z))
                      (not ((_ bit2bool 14) Z))
                      (not ((_ bit2bool 15) Z))
                      (not ((_ bit2bool 16) Z))
                      (not ((_ bit2bool 17) Z))
                      a!2
                      (not ((_ bit2bool 0) G))
                      (not ((_ bit2bool 1) G))
                      a!3
                      (or (not (= I1 #b1)) (not (= I #b001)))
                      (or (= I #b011) (not (= I1 #b1)) (not (= C1 #b1)))
                      (not ((_ bit2bool 5) G))
                      (not ((_ bit2bool 3) E))
                      (not ((_ bit2bool 4) G))
                      (not ((_ bit2bool 2) E))
                      a!4
                      (or (= I #b011) (not (= C1 #b1)) (not (= R1 #b1)))
                      (or (= I1 #b1)
                          (not (= B1 #b1))
                          (not (= C1 #b0))
                          (= ((_ extract 1 1) I) #b1))
                      a!5
                      a!6
                      a!7
                      a!8
                      a!9
                      a!10
                      a!11
                      a!12
                      a!13
                      a!14
                      a!15
                      (= a!16 #x000)
                      a!17
                      (or (= F2 #b0) (not (= I1 #b1)) (not (= C1 #b1)))
                      a!18
                      a!19
                      a!20
                      (or ((_ bit2bool 23) E1)
                          ((_ bit2bool 22) E1)
                          ((_ bit2bool 42) E1)
                          (not ((_ bit2bool 18) E1))
                          (not ((_ bit2bool 0) N))
                          (not a!21))
                      (or (= I #b011) (not (= W #b1)) (not (= R1 #b1)))
                      a!23
                      a!24
                      (or (= I #b011)
                          (not (= W #b1))
                          (= I1 #b1)
                          (not (= B1 #b1)))
                      (or (= I #b011) (not (= I1 #b1)) (not (= R1 #b1)))
                      (or (= I #b011) (not (= W #b1)) (not (= C1 #b1)))
                      (not ((_ bit2bool 1) E))
                      (not ((_ bit2bool 6) G))
                      (not ((_ bit2bool 7) G))
                      (not ((_ bit2bool 3) G))
                      (not ((_ bit2bool 2) G))
                      (or (= I #b011)
                          ((_ bit2bool 1) V)
                          ((_ bit2bool 0) V)
                          (not ((_ bit2bool 0) I))
                          (not ((_ bit2bool 1) H1))
                          (= ((_ extract 2 2) I) #b1)
                          (= ((_ extract 33 33) H1) #b1))
                      a!25
                      a!26
                      (or (= I #b011)
                          (not ((_ bit2bool 1) V))
                          (not ((_ bit2bool 1) U))
                          ((_ bit2bool 0) V)
                          (not ((_ bit2bool 0) I))
                          (not ((_ bit2bool 1) H1))
                          (= ((_ extract 2 2) I) #b1))
                      (or (= I #b011)
                          (not ((_ bit2bool 1) V))
                          (not ((_ bit2bool 0) I))
                          (= ((_ extract 2 2) I) #b1)
                          (= ((_ extract 17 17) H1) #b1))
                      a!27
                      (not ((_ bit2bool 5) E))
                      (not ((_ bit2bool 0) E))
                      a!28
                      a!29
                      a!30
                      a!31
                      a!32
                      a!33
                      a!34
                      (or (not ((_ bit2bool 0) S1)) (not (= O1 #b0)))
                      (not ((_ bit2bool 3) D))
                      a!35
                      a!36
                      a!37
                      (not ((_ bit2bool 4) E))
                      a!38
                      (or ((_ bit2bool 55) E1)
                          ((_ bit2bool 36) E1)
                          (not ((_ bit2bool 18) E1))
                          (not ((_ bit2bool 0) G2)))
                      a!39
                      a!40
                      (not ((_ bit2bool 2) D))
                      (not ((_ bit2bool 0) T))
                      a!42
                      (or ((_ bit2bool 0) K) (not ((_ bit2bool 0) G2))))))
       (= (INV!slice!1 A
                       B
                       C
                       D
                       E
                       F
                       G
                       H
                       I
                       J
                       K
                       L
                       M
                       N
                       O
                       P
                       Q
                       R
                       S
                       T
                       U
                       V
                       W
                       X
                       Y
                       Z
                       A1
                       B1
                       C1
                       D1
                       E1
                       F1
                       G1
                       H1
                       I1
                       J1
                       K1
                       L1
                       M1
                       N1
                       O1
                       P1
                       Q1
                       R1
                       S1
                       T1
                       U1
                       V1
                       W1
                       X1
                       Y1
                       Z1
                       A2
                       B2
                       C2
                       D2
                       E2
                       F2
                       G2
                       H2
                       I2
                       J2
                       K2
                       L2
                       M2
                       N2)
          a!43))))
     :weight 0))
